*SPEF "IEEE 1481-1998"
*DESIGN "ripple_counter"
*DATE "Thu May 07 09:06:11 2026"
*VENDOR "AUC CSCE Department"
*PROGRAM "SPEF Extractor"
*VERSION "1.0"
*DESIGN_FLOW "PIN_CAP NONE"
*DIVIDER /
*DELIMITER :
*BUS_DELIMITER []
*T_UNIT 1.00000 NS
*C_UNIT 1.00000 PF
*R_UNIT 1.00000 OHM
*L_UNIT 1.00000 HENRY


*NAME_MAP
*0 clk
*1 q[0]
*2 q[1]
*3 reset
*4 _0_
*5 _1_
*6 _2_
*7 _3_
*8 net1
*9 net2
*10 net3
*11 clknet_0_clk
*12 clknet_1_0_0_clk
*13 clknet_1_0_1_clk
*14 clknet_1_1_0_clk
*15 clknet_1_1_1_clk

*D_NET *0 0.0019912259365800003
*CONN
*P clk I
*I clkbuf_0_clk:A I
*CAP
0 *0:1 0.00032307714176
1 *0:2 0.00034627808382000003
2 *0:3 0.0004455877343700001
3 *0:4 0.00042238679231000007
4 *0:5 6.474683488e-05
5 *0:6 4.466114896e-05
6 *0:7 0.00016220125728
7 *0:8 0.00016220125728
8 clkbuf_0_clk:A 2.008568592e-05
*RES
0 *0:1 *0:2 7.285714285714286
1 *0:2 *0:3 0.4107142857142857
2 *0:3 *0:4 9.5625
3 *0:5 *0:6 0.8214285714285714
4 *0:5 *0:7 0.30357142857142855
5 *0:8 *0:7 2.875
6 *0:8 clkbuf_0_clk:A 0.30357142857142855
7 *0:6 *0:4 0
8 clkbuf_0_clk:A clkbuf_0_clk:A 0
*END

*D_NET *1 0.00063291299678
*CONN
*P q[0] O
*I output2:X O
*CAP
9 *1:1 0.00031645649839
10 *1:2 0.00031645649839
11 output2:X 0.0
*RES
9 *1:1 *1:2 7.133928571428571
10 output2:X output2:X 0
11 output2:X *1:1 0
*END

*D_NET *2 0.00103408944638
*CONN
*P q[1] O
*I output3:X O
*CAP
12 output3:X 0.00020058822479999998
13 *2:1 0.00020058822479999998
14 *2:2 0.00031645649839
15 *2:3 0.00031645649839
*RES
12 output3:X *2:1 4.107142857142857
13 *2:2 *2:3 7.133928571428571
14 output3:X output3:X 0
15 *2:1 *2:2 0
*END

*D_NET *3 0.0010870545933400002
*CONN
*P reset I
*I input1:A I
*CAP
16 *3:1 0.0003429390718700001
17 *3:2 0.0003429390718700001
18 *3:3 0.00020058822479999998
19 input1:A 0.00020058822479999998
*RES
16 *3:1 *3:2 7.741071428571428
17 *3:3 input1:A 4.107142857142857
18 *3:3 *3:2 0
19 input1:A input1:A 0
*END

*D_NET *4 0.0008054792148800001
*CONN
*I _8_:D I
*I _6_:B1 I
*I _6_:A1_N I
*I _5_:Y O
*CAP
20 *4:1 5.825140696e-05
21 *4:2 5.825140696e-05
22 _8_:D 8.364291792e-05
23 *4:3 8.364291792e-05
24 _6_:A1_N 3.449199184e-05
25 *4:4 0.00024075959664
26 _5_:Y 0.0001031338024
27 _6_:B1 2.008568592e-05
28 *4:5 0.00012321948832
*RES
20 *4:1 *4:2 1.2142857142857142
21 _8_:D *4:3 1.6428571428571428
22 _6_:A1_N *4:4 0.6071428571428571
23 _5_:Y *4:4 2.0535714285714284
24 _6_:B1 *4:5 0.30357142857142855
25 *4:4 *4:5 2.0535714285714284
26 _5_:Y _5_:Y 0
27 _5_:Y *4:1 0
28 *4:3 *4:2 0
29 _8_:D _8_:D 0
30 _6_:A1_N _6_:A1_N 0
31 _6_:B1 _6_:B1 0
*END

*D_NET *5 0.000495564548
*CONN
*I _9_:D I
*I _6_:X O
*CAP
29 _9_:D 1.686705344e-05
30 *5:1 5.825140696e-05
31 *5:2 5.825140696e-05
32 *5:3 0.00018109734031999995
33 _6_:X 0.00018109734031999995
*RES
32 _9_:D _9_:D 0.05803571428571428
33 *5:1 *5:2 1.2142857142857142
34 *5:3 _6_:X 3.6964285714285707
35 _9_:D _9_:D 0
36 _9_:D *5:1 0
37 *5:3 *5:2 0
38 _6_:X _6_:X 0
*END

*D_NET *6 0.00133359733456
*CONN
*I _8_:RESET_B I
*I _7_:A I
*I _4_:Y O
*CAP
34 *6:1 2.5170264480000005e-05
35 _4_:Y 0.00043117866432
36 *6:2 0.0002701119948
37 *6:3 0.0002701119948
38 _7_:A 0.00033702441616
39 _8_:RESET_B 0.0
*RES
39 *6:1 _4_:Y 0.4107142857142857
40 *6:2 *6:3 6.07142857142857
41 _4_:Y _7_:A 6.982142857142857
42 _4_:Y _4_:Y 0.6071428571428571
43 _4_:Y _4_:Y 0
44 *6:1 *6:2 0
45 _8_:RESET_B *6:3 0
46 _7_:A _7_:A 0
*END

*D_NET *7 0.00011650281392
*CONN
*I _9_:RESET_B I
*I _7_:X O
*CAP
40 *7:1 5.825140696e-05
41 *7:2 5.825140696e-05
42 _7_:X 0.0
43 _9_:RESET_B 0.0
*RES
47 *7:1 *7:2 1.2142857142857142
48 _7_:X _7_:X 0
49 _7_:X *7:1 0
50 _9_:RESET_B *7:2 0
*END

*D_NET *8 0.0030434475980000006
*CONN
*I input1:X O
*I _4_:A I
*CAP
44 *8:1 0.00019066427435999997
45 *8:2 0.00019066427435999997
46 input1:X 0.0013310595246400002
47 *8:3 0.0013310595246400002
48 _4_:A 0.0
*RES
51 *8:1 *8:2 4.249999999999999
52 input1:X *8:3 27.928571428571427
53 input1:X input1:X 0
54 *8:3 *8:1 0
55 _4_:A _4_:A 0
56 _4_:A *8:2 0
*END

*D_NET *9 0.00491292771188
*CONN
*I output2:A I
*I _5_:A I
*I _8_:Q O
*CAP
49 _5_:A 2.008568592e-05
50 *9:1 0.00039609187104
51 *9:2 0.00037600618512
52 *9:3 0.00012445784066000002
53 *9:4 0.0009242213050600001
54 output2:A 0.00113615067984
55 *9:5 0.00113615067984
56 *9:6 0.0007997634644
57 _8_:Q 0.0
*RES
57 _5_:A *9:1 0.30357142857142855
58 *9:2 *9:1 7.803571428571428
59 *9:3 *9:4 2.7321428571428568
60 output2:A *9:5 23.82142857142857
61 *9:4 *9:6 18.21428571428571
62 output2:A output2:A 0
63 _8_:Q _8_:Q 0
64 _8_:Q *9:4 0
65 _5_:A _5_:A 0
66 *9:2 *9:3 0
67 *9:5 *9:6 0
*END

*D_NET *10 0.0023029771211200006
*CONN
*I output3:A I
*I _6_:A2_N I
*I _6_:B2 I
*I _9_:Q O
*CAP
58 _6_:A2_N 6.415203344e-05
59 _6_:B2 0.00010432340528000001
60 *10:1 2.5170264480000005e-05
61 _9_:Q 2.5170264480000005e-05
62 *10:2 9.797526718e-05
63 *10:3 0.0010169103122400001
64 output3:A 2.5170264480000005e-05
65 *10:4 2.5170264480000005e-05
66 *10:5 0.0009189350450600002
*RES
68 _6_:A2_N _6_:B2 1.232142857142857
69 _6_:B2 _6_:B2 0.30357142857142855
70 *10:1 _9_:Q 0.4107142857142857
71 *10:2 *10:3 2.1249999999999996
72 output3:A *10:4 0.4107142857142857
73 *10:3 *10:5 20.94642857142857
74 _6_:B2 _6_:B2 0
75 _6_:B2 *10:3 0
76 _6_:A2_N _6_:A2_N 0
77 _9_:Q _9_:Q 0
78 *10:1 *10:2 0
79 *10:4 *10:5 0
80 output3:A output3:A 0
*END

*D_NET *11 0.0014695055564000001
*CONN
*I clkbuf_1_1_0_clk:A I
*I clkbuf_1_0_0_clk:A I
*I clkbuf_0_clk:X O
*CAP
67 clkbuf_0_clk:X 6.415203344e-05
68 *11:1 6.415203344e-05
69 *11:2 0.00019595053436000003
70 *11:3 4.501012022000001e-05
71 *11:4 0.0003954970696
72 *11:5 0.00042998906144
73 clkbuf_1_1_0_clk:A 3.449199184e-05
74 clkbuf_1_0_0_clk:A 4.466114896e-05
75 *11:6 4.466114896e-05
76 *11:7 0.00015094041414000003
*RES
81 clkbuf_0_clk:X *11:1 1.232142857142857
82 *11:2 *11:3 0.9107142857142857
83 *11:4 *11:5 8.214285714285714
84 *11:5 clkbuf_1_1_0_clk:A 0.6071428571428571
85 clkbuf_1_0_0_clk:A *11:6 0.8214285714285714
86 *11:7 *11:2 3.339285714285714
87 clkbuf_0_clk:X clkbuf_0_clk:X 0
88 *11:1 *11:2 0
89 *11:4 *11:3 0
90 clkbuf_1_1_0_clk:A clkbuf_1_1_0_clk:A 0
91 clkbuf_1_0_0_clk:A clkbuf_1_0_0_clk:A 0
92 *11:6 *11:7 0
*END

*D_NET *12 0.00047065084663999994
*CONN
*I clkbuf_1_0_1_clk:A I
*I clkbuf_1_0_0_clk:X O
*CAP
77 clkbuf_1_0_1_clk:A 4.466114896e-05
78 *12:1 4.466114896e-05
79 *12:2 0.00019066427435999997
80 *12:3 0.00019066427435999997
81 clkbuf_1_0_0_clk:X 0.0
*RES
93 clkbuf_1_0_1_clk:A *12:1 0.8214285714285714
94 *12:2 *12:3 4.249999999999999
95 clkbuf_1_0_1_clk:A clkbuf_1_0_1_clk:A 0
96 *12:1 *12:2 0
97 clkbuf_1_0_0_clk:X clkbuf_1_0_0_clk:X 0
98 clkbuf_1_0_0_clk:X *12:3 0
*END

*D_NET *13 0.00056111358004
*CONN
*I _9_:CLK I
*I clkbuf_1_0_1_clk:X O
*CAP
82 clkbuf_1_0_1_clk:X 0.0001031338024
83 *13:1 0.0001031338024
84 *13:2 0.00017742298762
85 *13:3 0.00017742298762
86 _9_:CLK 0.0
*RES
99 clkbuf_1_0_1_clk:X *13:1 2.0535714285714284
100 *13:2 *13:3 3.946428571428571
101 clkbuf_1_0_1_clk:X clkbuf_1_0_1_clk:X 0
102 *13:1 *13:2 0
103 _9_:CLK _9_:CLK 0
104 _9_:CLK *13:3 0
*END

*D_NET *14 0.00035484597524
*CONN
*I clkbuf_1_1_1_clk:A I
*I clkbuf_1_1_0_clk:X O
*CAP
87 *14:1 0.00017742298762
88 *14:2 0.00017742298762
89 clkbuf_1_1_0_clk:X 0.0
90 clkbuf_1_1_1_clk:A 0.0
*RES
105 *14:1 *14:2 3.946428571428571
106 clkbuf_1_1_0_clk:X clkbuf_1_1_0_clk:X 0
107 clkbuf_1_1_0_clk:X *14:1 0
108 clkbuf_1_1_1_clk:A clkbuf_1_1_1_clk:A 0
109 clkbuf_1_1_1_clk:A *14:2 0
*END

*D_NET *15 0.0006504358779599998
*CONN
*I _8_:CLK I
*I clkbuf_1_1_1_clk:X O
*CAP
91 _8_:CLK 8.364291792e-05
92 *15:1 8.364291792e-05
93 *15:2 0.00017742298762
94 *15:3 0.00017742298762
95 *15:4 6.415203344e-05
96 clkbuf_1_1_1_clk:X 6.415203344e-05
*RES
110 _8_:CLK *15:1 1.6428571428571428
111 *15:2 *15:3 3.946428571428571
112 *15:4 clkbuf_1_1_1_clk:X 1.232142857142857
113 _8_:CLK _8_:CLK 0
114 *15:1 *15:2 0
115 *15:4 *15:3 0
116 clkbuf_1_1_1_clk:X clkbuf_1_1_1_clk:X 0
*END

